p cnf 78 278
1 2 3 4 5 6 7 8 0
41 42 43 44 45 46 47 0
48 49 50 51 52 53 54 55 0
-1 -9 0
-1 -33 0
-1 -56 0
-1 -64 0
-1 -72 0
-9 -33 0
-9 -56 0
-9 -64 0
-9 -72 0
-33 -56 0
-33 -64 0
-33 -72 0
-56 -64 0
-56 -72 0
-64 -72 0
-2 -10 0
-2 -18 0
-2 -24 0
-2 -57 0
-2 -65 0
-10 -18 0
-10 -24 0
-10 -57 0
-10 -65 0
-18 -24 0
-18 -57 0
-18 -65 0
-24 -57 0
-24 -65 0
-57 -65 0
-3 -11 0
-3 -25 0
-3 -34 0
-3 -41 0
-3 -48 0
-3 -58 0
-3 -66 0
-3 -73 0
-11 -25 0
-11 -34 0
-11 -41 0
-11 -48 0
-11 -58 0
-11 -66 0
-11 -73 0
-25 -34 0
-25 -41 0
-25 -48 0
-25 -58 0
-25 -66 0
-25 -73 0
-34 -41 0
-34 -48 0
-34 -58 0
-34 -66 0
-34 -73 0
-41 -48 0
-41 -58 0
-41 -66 0
-41 -73 0
-48 -58 0
-48 -66 0
-48 -73 0
-58 -66 0
-58 -73 0
-66 -73 0
-4 -26 0
-4 -35 0
-4 -42 0
-4 -49 0
-4 -59 0
-4 -67 0
-4 -74 0
-26 -35 0
-26 -42 0
-26 -49 0
-26 -59 0
-26 -67 0
-26 -74 0
-35 -42 0
-35 -49 0
-35 -59 0
-35 -67 0
-35 -74 0
-42 -49 0
-42 -59 0
-42 -67 0
-42 -74 0
-49 -59 0
-49 -67 0
-49 -74 0
-59 -67 0
-59 -74 0
-67 -74 0
-5 -12 0
-5 -19 0
-5 -27 0
-5 -36 0
-5 -50 0
-12 -19 0
-12 -27 0
-12 -36 0
-12 -50 0
-19 -27 0
-19 -36 0
-19 -50 0
-27 -36 0
-27 -50 0
-36 -50 0
-13 -20 0
-13 -28 0
-13 -37 0
-13 -43 0
-13 -51 0
-13 -60 0
-13 -68 0
-13 -75 0
-20 -28 0
-20 -37 0
-20 -43 0
-20 -51 0
-20 -60 0
-20 -68 0
-20 -75 0
-28 -37 0
-28 -43 0
-28 -51 0
-28 -60 0
-28 -68 0
-28 -75 0
-37 -43 0
-37 -51 0
-37 -60 0
-37 -68 0
-37 -75 0
-43 -51 0
-43 -60 0
-43 -68 0
-43 -75 0
-51 -60 0
-51 -68 0
-51 -75 0
-60 -68 0
-60 -75 0
-68 -75 0
-6 -14 0
-6 -21 0
-6 -29 0
-6 -38 0
-6 -44 0
-6 -52 0
-6 -61 0
-6 -69 0
-6 -76 0
-14 -21 0
-14 -29 0
-14 -38 0
-14 -44 0
-14 -52 0
-14 -61 0
-14 -69 0
-14 -76 0
-21 -29 0
-21 -38 0
-21 -44 0
-21 -52 0
-21 -61 0
-21 -69 0
-21 -76 0
-29 -38 0
-29 -44 0
-29 -52 0
-29 -61 0
-29 -69 0
-29 -76 0
-38 -44 0
-38 -52 0
-38 -61 0
-38 -69 0
-38 -76 0
-44 -52 0
-44 -61 0
-44 -69 0
-44 -76 0
-52 -61 0
-52 -69 0
-52 -76 0
-61 -69 0
-61 -76 0
-69 -76 0
-7 -15 0
-7 -30 0
-7 -39 0
-7 -45 0
-7 -53 0
-7 -62 0
-7 -77 0
-15 -30 0
-15 -39 0
-15 -45 0
-15 -53 0
-15 -62 0
-15 -77 0
-30 -39 0
-30 -45 0
-30 -53 0
-30 -62 0
-30 -77 0
-39 -45 0
-39 -53 0
-39 -62 0
-39 -77 0
-45 -53 0
-45 -62 0
-45 -77 0
-53 -62 0
-53 -77 0
-62 -77 0
-8 -16 0
-8 -22 0
-8 -31 0
-8 -40 0
-8 -46 0
-8 -54 0
-8 -70 0
-8 -78 0
-16 -22 0
-16 -31 0
-16 -40 0
-16 -46 0
-16 -54 0
-16 -70 0
-16 -78 0
-22 -31 0
-22 -40 0
-22 -46 0
-22 -54 0
-22 -70 0
-22 -78 0
-31 -40 0
-31 -46 0
-31 -54 0
-31 -70 0
-31 -78 0
-40 -46 0
-40 -54 0
-40 -70 0
-40 -78 0
-46 -54 0
-46 -70 0
-46 -78 0
-54 -70 0
-54 -78 0
-70 -78 0
-17 -23 0
-17 -32 0
-17 -47 0
-17 -55 0
-17 -63 0
-17 -71 0
-23 -32 0
-23 -47 0
-23 -55 0
-23 -63 0
-23 -71 0
-32 -47 0
-32 -55 0
-32 -63 0
-32 -71 0
-47 -55 0
-47 -63 0
-47 -71 0
-55 -63 0
-55 -71 0
-63 -71 0
